1 100 512 95
0 40.0 50.0 0.0 0.0 0 240
2 25.0 85.0 10.0 20.0 130 190 1 5
3 22.0 75.0 10.0 30.0 35 95 2 5
4 22.0 85.0 10.0 10.0 94 154 3 5
5 20.0 80.0 10.0 40.0 126 186 4 5
6 20.0 85.0 10.0 20.0 40 100 5 5
7 18.0 75.0 10.0 20.0 80 140 6 10
8 15.0 75.0 10.0 20.0 64 124 7 10
9 15.0 80.0 10.0 10.0 76 136 8 10
10 10.0 35.0 10.0 20.0 76 136 9 10
11 10.0 40.0 10.0 30.0 104 164 10 10
12 8.0 40.0 10.0 40.0 44 104 11 15
13 8.0 45.0 10.0 20.0 49 109 12 15
14 5.0 35.0 10.0 10.0 127 187 13 15
15 5.0 45.0 10.0 10.0 35 95 14 15
16 2.0 40.0 10.0 20.0 43 103 15 15
17 0.0 40.0 10.0 20.0 57 117 16 5
18 0.0 45.0 10.0 20.0 129 189 17 5
19 44.0 5.0 10.0 20.0 72 132 18 5
20 42.0 10.0 10.0 40.0 57 117 19 5
21 42.0 15.0 10.0 10.0 107 167 20 5
22 40.0 5.0 10.0 10.0 52 112 21 10
23 40.0 15.0 10.0 40.0 77 137 22 10
24 38.0 5.0 10.0 30.0 50 110 23 10
25 38.0 15.0 10.0 10.0 133 193 24 10
26 35.0 5.0 10.0 20.0 124 184 25 10
27 95.0 30.0 10.0 30.0 100 160 26 15
28 95.0 35.0 10.0 20.0 57 117 27 15
29 92.0 30.0 10.0 10.0 55 115 28 15
30 90.0 35.0 10.0 10.0 52 112 29 15
31 88.0 30.0 10.0 10.0 59 119 30 15
32 88.0 35.0 10.0 20.0 50 110 31 5
33 87.0 30.0 10.0 10.0 116 176 32 5
34 85.0 25.0 10.0 10.0 51 111 33 5
35 85.0 35.0 10.0 30.0 96 156 34 5
36 67.0 85.0 10.0 20.0 124 184 35 5
37 65.0 85.0 10.0 40.0 43 103 36 10
38 65.0 82.0 10.0 10.0 109 169 37 10
39 62.0 80.0 10.0 30.0 60 120 38 10
40 60.0 80.0 10.0 10.0 36 96 39 10
41 60.0 85.0 10.0 30.0 70 130 40 10
42 58.0 75.0 10.0 20.0 77 137 41 15
43 55.0 80.0 10.0 10.0 33 93 42 15
44 55.0 85.0 10.0 20.0 113 173 43 15
45 55.0 82.0 10.0 10.0 49 109 44 15
46 20.0 82.0 10.0 10.0 37 97 45 15
47 18.0 80.0 10.0 10.0 98 158 46 5
48 2.0 45.0 10.0 10.0 38 98 47 5
49 42.0 5.0 10.0 10.0 124 184 48 5
50 42.0 12.0 10.0 10.0 89 149 49 5
51 72.0 35.0 10.0 30.0 101 161 50 5
52 55.0 20.0 10.0 19.0 68 128 51 10
53 25.0 30.0 10.0 3.0 37 97 52 10
54 20.0 50.0 10.0 5.0 76 136 53 10
55 55.0 60.0 10.0 16.0 124 184 54 10
56 30.0 60.0 10.0 16.0 125 185 55 10
57 50.0 35.0 10.0 19.0 115 175 56 15
58 30.0 25.0 10.0 23.0 81 141 57 15
59 15.0 10.0 10.0 20.0 122 182 58 15
60 10.0 20.0 10.0 19.0 42 102 59 15
61 15.0 60.0 10.0 17.0 140 200 60 15
62 45.0 65.0 10.0 9.0 51 111 61 5
63 65.0 35.0 10.0 3.0 37 97 62 5
64 65.0 20.0 10.0 6.0 39 99 63 5
65 45.0 30.0 10.0 17.0 38 98 64 5
66 35.0 40.0 10.0 16.0 11 71 65 5
67 41.0 37.0 10.0 16.0 118 178 66 10
68 64.0 42.0 10.0 9.0 55 115 67 10
69 40.0 60.0 10.0 21.0 129 189 68 10
70 31.0 52.0 10.0 27.0 26 86 69 10
71 35.0 69.0 10.0 23.0 150 210 70 10
72 65.0 55.0 10.0 14.0 50 110 71 15
73 63.0 65.0 10.0 8.0 27 87 72 15
74 2.0 60.0 10.0 5.0 62 122 73 15
75 20.0 20.0 10.0 8.0 126 186 74 15
76 5.0 5.0 10.0 16.0 59 119 75 15
77 60.0 12.0 10.0 31.0 60 120 76 5
78 23.0 3.0 10.0 7.0 120 180 77 5
79 8.0 56.0 10.0 27.0 75 135 78 5
80 6.0 68.0 10.0 30.0 74 134 79 5
81 47.0 47.0 10.0 13.0 162 222 80 5
82 49.0 58.0 10.0 10.0 71 131 81 10
83 27.0 43.0 10.0 9.0 27 87 82 10
84 37.0 31.0 10.0 14.0 20 80 83 10
85 57.0 29.0 10.0 18.0 81 141 84 10
86 63.0 23.0 10.0 2.0 72 132 85 10
87 21.0 24.0 10.0 28.0 72 132 86 15
88 12.0 24.0 10.0 13.0 75 135 87 15
89 24.0 58.0 10.0 19.0 52 112 88 15
90 67.0 5.0 10.0 25.0 117 177 89 15
91 37.0 47.0 10.0 6.0 71 131 90 15
92 49.0 42.0 10.0 13.0 152 212 91 5
93 53.0 43.0 10.0 14.0 14 74 92 5
94 61.0 52.0 10.0 3.0 148 208 93 5
95 57.0 48.0 10.0 23.0 80 140 94 5
96 56.0 37.0 10.0 6.0 20 80 95 5
97 55.0 54.0 10.0 26.0 117 177 96 10
98 4.0 18.0 10.0 35.0 105 165 97 10
99 26.0 52.0 10.0 9.0 31 91 98 10
100 26.0 35.0 10.0 15.0 62 122 99 10
101 31.0 67.0 10.0 3.0 150 210 100 10